ACTORES = {Actor0, Actor1, Actor2, Actor3, Actor4, Actor5, Actor6, Actor7, Actor8, Actor9};
Escenas =[|1,0,1,0,1,1,1,0,0,1,0,1,4
		  |0,1,1,1,1,1,1,0,1,0,0,0,17
		  |0,1,1,0,0,1,1,0,0,0,1,1,4
		  |0,0,1,0,0,1,1,0,1,1,1,0,1
		  |0,1,1,0,0,0,0,0,0,1,0,0,14
		  |0,0,0,1,0,0,1,1,0,1,0,0,18
		  |0,1,1,0,0,1,0,0,0,0,0,0,18
		  |1,1,0,0,0,0,0,1,0,0,1,1,4
		  |0,1,0,1,1,1,0,0,0,0,0,0,19
		  |1,1,1,1,0,0,1,0,0,0,0,0,9
		  |];
Duracion=[3, 4, 4, 4, 4, 4, 2, 4, 5, 3, 3, 5];